(set-logic QF_BV)

(declare-const __ESBMC_ptr_obj_start_0 (_ BitVec 64))

(declare-const __ESBMC_ptr_obj_end_0 (_ BitVec 64))

(declare-const __ESBMC_ptr_obj_start_1 (_ BitVec 64))

(declare-const __ESBMC_ptr_obj_end_1 (_ BitVec 64))

(declare-const |smt_conv::__ESBMC_ptr_addr_range_0..start0| (_ BitVec 64))

(declare-const |smt_conv::__ESBMC_ptr_addr_range_0..end0| (_ BitVec 64))

(declare-const |smt_conv::__ESBMC_ptr_addr_range_1..start0| (_ BitVec 64))

(declare-const |smt_conv::__ESBMC_ptr_addr_range_1..end0| (_ BitVec 64))

(declare-const |smt_conv::smt_conv::collate_array_vals::3..start0| (_ BitVec 64))

(declare-const |smt_conv::smt_conv::collate_array_vals::3..end0| (_ BitVec 64))

(declare-const |smt_conv::smt_conv::collate_array_vals::4..start0| (_ BitVec 64))

(declare-const |smt_conv::smt_conv::collate_array_vals::4..end0| (_ BitVec 64))

(declare-const |smt_conv::smt_conv::collate_array_vals::7..start0| (_ BitVec 64))

(declare-const |smt_conv::smt_conv::collate_array_vals::7..end0| (_ BitVec 64))

(declare-const |c:@F@main::$tmp::return_value$___VERIFIER_nondet_int$1?1!0&0#1| (_ BitVec 32))

(declare-const |nondet$symex::nondet26| (_ BitVec 32))

(declare-const |c:Division-2.c@205@F@main@y?1!0&0#1| (_ BitVec 32))

(declare-const |goto_symex::guard?0!0&0#1| (_ BitVec 1))

(declare-const |c:Division-2.c@205@F@main@y?1!0&0#2| (_ BitVec 32))

(declare-const |goto_symex::guard?0!0&0#2| (_ BitVec 1))

(declare-const |c:Division-2.c@205@F@main@y?1!0&0#3| (_ BitVec 32))

(declare-const |goto_symex::guard?0!0&0#3| (_ BitVec 1))

(declare-const |c:Division-2.c@205@F@main@y?1!0&0#4| (_ BitVec 32))

(declare-const |goto_symex::guard?0!0&0#4| (_ BitVec 1))

(declare-const |c:Division-2.c@205@F@main@y?1!0&0#5| (_ BitVec 32))

(declare-const |goto_symex::guard?0!0&0#5| (_ BitVec 1))

(declare-const |c:Division-2.c@205@F@main@y?1!0&0#6| (_ BitVec 32))

(declare-const |goto_symex::guard?0!0&0#6| (_ BitVec 1))

(declare-const |c:Division-2.c@205@F@main@y?1!0&0#7| (_ BitVec 32))

(declare-const |goto_symex::guard?0!0&0#7| (_ BitVec 1))

(declare-const |c:Division-2.c@205@F@main@y?1!0&0#8| (_ BitVec 32))

(declare-const |goto_symex::guard?0!0&0#8| (_ BitVec 1))

(declare-const |c:Division-2.c@205@F@main@y?1!0&0#9| (_ BitVec 32))

(declare-const |goto_symex::guard?0!0&0#9| (_ BitVec 1))

(declare-const |c:Division-2.c@205@F@main@y?1!0&0#10| (_ BitVec 32))

(declare-const |goto_symex::guard?0!0&0#10| (_ BitVec 1))

(declare-const |c:Division-2.c@205@F@main@y?1!0&0#11| (_ BitVec 32))

(declare-const |goto_symex::guard?0!0&0#11| (_ BitVec 1))

(declare-const |c:Division-2.c@205@F@main@y?1!0&0#12| (_ BitVec 32))

(declare-const |goto_symex::guard?0!0&0#12| (_ BitVec 1))

(declare-const |c:Division-2.c@205@F@main@y?1!0&0#13| (_ BitVec 32))

(declare-const |goto_symex::guard?0!0&0#13| (_ BitVec 1))

(declare-const |c:Division-2.c@205@F@main@y?1!0&0#14| (_ BitVec 32))

(declare-const |goto_symex::guard?0!0&0#14| (_ BitVec 1))

(declare-const |c:Division-2.c@205@F@main@y?1!0&0#15| (_ BitVec 32))

(declare-const |goto_symex::guard?0!0&0#15| (_ BitVec 1))

(declare-const |c:Division-2.c@205@F@main@y?1!0&0#16| (_ BitVec 32))

(declare-const |goto_symex::guard?0!0&0#16| (_ BitVec 1))

(declare-const |c:Division-2.c@205@F@main@y?1!0&0#17| (_ BitVec 32))

(declare-const |goto_symex::guard?0!0&0#17| (_ BitVec 1))

(declare-const |c:Division-2.c@205@F@main@y?1!0&0#18| (_ BitVec 32))

(declare-const |goto_symex::guard?0!0&0#18| (_ BitVec 1))

(declare-const |c:Division-2.c@205@F@main@y?1!0&0#19| (_ BitVec 32))

(declare-const |goto_symex::guard?0!0&0#19| (_ BitVec 1))

(declare-const |c:Division-2.c@205@F@main@y?1!0&0#20| (_ BitVec 32))

(declare-const |goto_symex::guard?0!0&0#20| (_ BitVec 1))

(declare-const |c:Division-2.c@205@F@main@y?1!0&0#21| (_ BitVec 32))

(declare-const |goto_symex::guard?0!0&0#21| (_ BitVec 1))

(declare-const |c:Division-2.c@205@F@main@y?1!0&0#22| (_ BitVec 32))

(declare-const |goto_symex::guard?0!0&0#22| (_ BitVec 1))

(declare-const |c:Division-2.c@205@F@main@y?1!0&0#23| (_ BitVec 32))

(declare-const |goto_symex::guard?0!0&0#23| (_ BitVec 1))

(declare-const |c:Division-2.c@205@F@main@y?1!0&0#24| (_ BitVec 32))

(declare-const |goto_symex::guard?0!0&0#24| (_ BitVec 1))

(declare-const |c:Division-2.c@205@F@main@y?1!0&0#25| (_ BitVec 32))

(declare-const |goto_symex::guard?0!0&0#25| (_ BitVec 1))

(declare-const |c:Division-2.c@205@F@main@y?1!0&0#26| (_ BitVec 32))

(declare-const |goto_symex::guard?0!0&0#26| (_ BitVec 1))

(declare-const |c:Division-2.c@205@F@main@y?1!0&0#27| (_ BitVec 32))

(declare-const |goto_symex::guard?0!0&0#27| (_ BitVec 1))

(declare-const |execution_statet::guard_exec?0!0| (_ BitVec 1))

(define-fun $e1 () (_ BitVec 32) 

 (bvmul |c:Division-2.c@205@F@main@y?1!0&0#1| #b00000000000000000000000000000010))

(define-fun $e2 () (_ BitVec 32) 

 (bvadd $e1 #b00000000000000000000000000000001))

(define-fun $e3 () (_ BitVec 1) 

 ((_ extract 31 31) $e2))

(define-fun $e4 () (_ BitVec 32) 

 (concat #b0 

  ((_ extract 31 1) 

   (bvadd #b00000000000000000000000000000001 

    (ite 

     (= #b1 $e3) 

     (bvnot $e2) $e1)))))

(define-fun $e5 () (_ BitVec 32) 

 (bvmul |c:Division-2.c@205@F@main@y?1!0&0#2| #b00000000000000000000000000000010))

(define-fun $e6 () (_ BitVec 32) 

 (bvadd #b00000000000000000000000000000001 $e5))

(define-fun $e7 () (_ BitVec 1) 

 ((_ extract 31 31) $e6))

(define-fun $e8 () (_ BitVec 32) 

 (concat #b0 

  ((_ extract 31 1) 

   (bvadd #b00000000000000000000000000000001 

    (ite 

     (= #b1 $e7) 

     (bvnot $e6) $e5)))))

(define-fun $e9 () (_ BitVec 32) 

 (bvmul #b00000000000000000000000000000010 |c:Division-2.c@205@F@main@y?1!0&0#3|))

(define-fun $e10 () (_ BitVec 32) 

 (bvadd #b00000000000000000000000000000001 $e9))

(define-fun $e11 () (_ BitVec 1) 

 ((_ extract 31 31) $e10))

(define-fun $e12 () (_ BitVec 32) 

 (concat #b0 

  ((_ extract 31 1) 

   (bvadd #b00000000000000000000000000000001 

    (ite 

     (= #b1 $e11) 

     (bvnot $e10) $e9)))))

(define-fun $e13 () (_ BitVec 32) 

 (bvmul #b00000000000000000000000000000010 |c:Division-2.c@205@F@main@y?1!0&0#4|))

(define-fun $e14 () (_ BitVec 32) 

 (bvadd #b00000000000000000000000000000001 $e13))

(define-fun $e15 () (_ BitVec 1) 

 ((_ extract 31 31) $e14))

(define-fun $e16 () (_ BitVec 32) 

 (concat #b0 

  ((_ extract 31 1) 

   (bvadd #b00000000000000000000000000000001 

    (ite 

     (= #b1 $e15) 

     (bvnot $e14) $e13)))))

(define-fun $e17 () (_ BitVec 32) 

 (bvmul #b00000000000000000000000000000010 |c:Division-2.c@205@F@main@y?1!0&0#5|))

(define-fun $e18 () (_ BitVec 32) 

 (bvadd #b00000000000000000000000000000001 $e17))

(define-fun $e19 () (_ BitVec 1) 

 ((_ extract 31 31) $e18))

(define-fun $e20 () (_ BitVec 32) 

 (concat #b0 

  ((_ extract 31 1) 

   (bvadd #b00000000000000000000000000000001 

    (ite 

     (= #b1 $e19) 

     (bvnot $e18) $e17)))))

(define-fun $e21 () (_ BitVec 32) 

 (bvmul #b00000000000000000000000000000010 |c:Division-2.c@205@F@main@y?1!0&0#6|))

(define-fun $e22 () (_ BitVec 32) 

 (bvadd #b00000000000000000000000000000001 $e21))

(define-fun $e23 () (_ BitVec 1) 

 ((_ extract 31 31) $e22))

(define-fun $e24 () (_ BitVec 32) 

 (concat #b0 

  ((_ extract 31 1) 

   (bvadd #b00000000000000000000000000000001 

    (ite 

     (= #b1 $e23) 

     (bvnot $e22) $e21)))))

(define-fun $e25 () (_ BitVec 32) 

 (bvmul #b00000000000000000000000000000010 |c:Division-2.c@205@F@main@y?1!0&0#7|))

(define-fun $e26 () (_ BitVec 32) 

 (bvadd #b00000000000000000000000000000001 $e25))

(define-fun $e27 () (_ BitVec 1) 

 ((_ extract 31 31) $e26))

(define-fun $e28 () (_ BitVec 32) 

 (concat #b0 

  ((_ extract 31 1) 

   (bvadd #b00000000000000000000000000000001 

    (ite 

     (= #b1 $e27) 

     (bvnot $e26) $e25)))))

(define-fun $e29 () (_ BitVec 32) 

 (bvmul #b00000000000000000000000000000010 |c:Division-2.c@205@F@main@y?1!0&0#8|))

(define-fun $e30 () (_ BitVec 32) 

 (bvadd #b00000000000000000000000000000001 $e29))

(define-fun $e31 () (_ BitVec 1) 

 ((_ extract 31 31) $e30))

(define-fun $e32 () (_ BitVec 32) 

 (concat #b0 

  ((_ extract 31 1) 

   (bvadd #b00000000000000000000000000000001 

    (ite 

     (= #b1 $e31) 

     (bvnot $e30) $e29)))))

(define-fun $e33 () (_ BitVec 32) 

 (bvmul #b00000000000000000000000000000010 |c:Division-2.c@205@F@main@y?1!0&0#9|))

(define-fun $e34 () (_ BitVec 32) 

 (bvadd #b00000000000000000000000000000001 $e33))

(define-fun $e35 () (_ BitVec 1) 

 ((_ extract 31 31) $e34))

(define-fun $e36 () (_ BitVec 32) 

 (concat #b0 

  ((_ extract 31 1) 

   (bvadd #b00000000000000000000000000000001 

    (ite 

     (= #b1 $e35) 

     (bvnot $e34) $e33)))))

(define-fun $e37 () (_ BitVec 32) 

 (bvmul #b00000000000000000000000000000010 |c:Division-2.c@205@F@main@y?1!0&0#10|))

(define-fun $e38 () (_ BitVec 32) 

 (bvadd #b00000000000000000000000000000001 $e37))

(define-fun $e39 () (_ BitVec 1) 

 ((_ extract 31 31) $e38))

(define-fun $e40 () (_ BitVec 32) 

 (concat #b0 

  ((_ extract 31 1) 

   (bvadd #b00000000000000000000000000000001 

    (ite 

     (= #b1 $e39) 

     (bvnot $e38) $e37)))))

(define-fun $e41 () (_ BitVec 32) 

 (bvmul #b00000000000000000000000000000010 |c:Division-2.c@205@F@main@y?1!0&0#11|))

(define-fun $e42 () (_ BitVec 32) 

 (bvadd #b00000000000000000000000000000001 $e41))

(define-fun $e43 () (_ BitVec 1) 

 ((_ extract 31 31) $e42))

(define-fun $e44 () (_ BitVec 32) 

 (concat #b0 

  ((_ extract 31 1) 

   (bvadd #b00000000000000000000000000000001 

    (ite 

     (= #b1 $e43) 

     (bvnot $e42) $e41)))))

(define-fun $e45 () (_ BitVec 32) 

 (bvmul #b00000000000000000000000000000010 |c:Division-2.c@205@F@main@y?1!0&0#12|))

(define-fun $e46 () (_ BitVec 32) 

 (bvadd #b00000000000000000000000000000001 $e45))

(define-fun $e47 () (_ BitVec 1) 

 ((_ extract 31 31) $e46))

(define-fun $e48 () (_ BitVec 32) 

 (concat #b0 

  ((_ extract 31 1) 

   (bvadd #b00000000000000000000000000000001 

    (ite 

     (= #b1 $e47) 

     (bvnot $e46) $e45)))))

(define-fun $e49 () (_ BitVec 32) 

 (bvmul #b00000000000000000000000000000010 |c:Division-2.c@205@F@main@y?1!0&0#13|))

(define-fun $e50 () (_ BitVec 32) 

 (bvadd #b00000000000000000000000000000001 $e49))

(define-fun $e51 () (_ BitVec 1) 

 ((_ extract 31 31) $e50))

(define-fun $e52 () (_ BitVec 32) 

 (concat #b0 

  ((_ extract 31 1) 

   (bvadd #b00000000000000000000000000000001 

    (ite 

     (= #b1 $e51) 

     (bvnot $e50) $e49)))))

(define-fun $e53 () (_ BitVec 32) 

 (bvmul #b00000000000000000000000000000010 |c:Division-2.c@205@F@main@y?1!0&0#14|))

(define-fun $e54 () (_ BitVec 32) 

 (bvadd #b00000000000000000000000000000001 $e53))

(define-fun $e55 () (_ BitVec 1) 

 ((_ extract 31 31) $e54))

(define-fun $e56 () (_ BitVec 32) 

 (concat #b0 

  ((_ extract 31 1) 

   (bvadd #b00000000000000000000000000000001 

    (ite 

     (= #b1 $e55) 

     (bvnot $e54) $e53)))))

(define-fun $e57 () (_ BitVec 32) 

 (bvmul #b00000000000000000000000000000010 |c:Division-2.c@205@F@main@y?1!0&0#15|))

(define-fun $e58 () (_ BitVec 32) 

 (bvadd #b00000000000000000000000000000001 $e57))

(define-fun $e59 () (_ BitVec 1) 

 ((_ extract 31 31) $e58))

(define-fun $e60 () (_ BitVec 32) 

 (concat #b0 

  ((_ extract 31 1) 

   (bvadd #b00000000000000000000000000000001 

    (ite 

     (= #b1 $e59) 

     (bvnot $e58) $e57)))))

(define-fun $e61 () (_ BitVec 32) 

 (bvmul #b00000000000000000000000000000010 |c:Division-2.c@205@F@main@y?1!0&0#16|))

(define-fun $e62 () (_ BitVec 32) 

 (bvadd #b00000000000000000000000000000001 $e61))

(define-fun $e63 () (_ BitVec 1) 

 ((_ extract 31 31) $e62))

(define-fun $e64 () (_ BitVec 32) 

 (concat #b0 

  ((_ extract 31 1) 

   (bvadd #b00000000000000000000000000000001 

    (ite 

     (= #b1 $e63) 

     (bvnot $e62) $e61)))))

(define-fun $e65 () (_ BitVec 32) 

 (bvmul #b00000000000000000000000000000010 |c:Division-2.c@205@F@main@y?1!0&0#17|))

(define-fun $e66 () (_ BitVec 32) 

 (bvadd #b00000000000000000000000000000001 $e65))

(define-fun $e67 () (_ BitVec 1) 

 ((_ extract 31 31) $e66))

(define-fun $e68 () (_ BitVec 32) 

 (concat #b0 

  ((_ extract 31 1) 

   (bvadd #b00000000000000000000000000000001 

    (ite 

     (= #b1 $e67) 

     (bvnot $e66) $e65)))))

(define-fun $e69 () (_ BitVec 32) 

 (bvmul #b00000000000000000000000000000010 |c:Division-2.c@205@F@main@y?1!0&0#18|))

(define-fun $e70 () (_ BitVec 32) 

 (bvadd #b00000000000000000000000000000001 $e69))

(define-fun $e71 () (_ BitVec 1) 

 ((_ extract 31 31) $e70))

(define-fun $e72 () (_ BitVec 32) 

 (concat #b0 

  ((_ extract 31 1) 

   (bvadd #b00000000000000000000000000000001 

    (ite 

     (= #b1 $e71) 

     (bvnot $e70) $e69)))))

(define-fun $e73 () (_ BitVec 32) 

 (bvmul #b00000000000000000000000000000010 |c:Division-2.c@205@F@main@y?1!0&0#19|))

(define-fun $e74 () (_ BitVec 32) 

 (bvadd #b00000000000000000000000000000001 $e73))

(define-fun $e75 () (_ BitVec 1) 

 ((_ extract 31 31) $e74))

(define-fun $e76 () (_ BitVec 32) 

 (concat #b0 

  ((_ extract 31 1) 

   (bvadd #b00000000000000000000000000000001 

    (ite 

     (= #b1 $e75) 

     (bvnot $e74) $e73)))))

(define-fun $e77 () (_ BitVec 32) 

 (bvmul #b00000000000000000000000000000010 |c:Division-2.c@205@F@main@y?1!0&0#20|))

(define-fun $e78 () (_ BitVec 32) 

 (bvadd #b00000000000000000000000000000001 $e77))

(define-fun $e79 () (_ BitVec 1) 

 ((_ extract 31 31) $e78))

(define-fun $e80 () (_ BitVec 32) 

 (concat #b0 

  ((_ extract 31 1) 

   (bvadd #b00000000000000000000000000000001 

    (ite 

     (= #b1 $e79) 

     (bvnot $e78) $e77)))))

(define-fun $e81 () (_ BitVec 32) 

 (bvmul #b00000000000000000000000000000010 |c:Division-2.c@205@F@main@y?1!0&0#21|))

(define-fun $e82 () (_ BitVec 32) 

 (bvadd #b00000000000000000000000000000001 $e81))

(define-fun $e83 () (_ BitVec 1) 

 ((_ extract 31 31) $e82))

(define-fun $e84 () (_ BitVec 32) 

 (concat #b0 

  ((_ extract 31 1) 

   (bvadd #b00000000000000000000000000000001 

    (ite 

     (= #b1 $e83) 

     (bvnot $e82) $e81)))))

(define-fun $e85 () (_ BitVec 32) 

 (bvmul #b00000000000000000000000000000010 |c:Division-2.c@205@F@main@y?1!0&0#22|))

(define-fun $e86 () (_ BitVec 32) 

 (bvadd #b00000000000000000000000000000001 $e85))

(define-fun $e87 () (_ BitVec 1) 

 ((_ extract 31 31) $e86))

(define-fun $e88 () (_ BitVec 32) 

 (concat #b0 

  ((_ extract 31 1) 

   (bvadd #b00000000000000000000000000000001 

    (ite 

     (= #b1 $e87) 

     (bvnot $e86) $e85)))))

(define-fun $e89 () (_ BitVec 32) 

 (bvmul #b00000000000000000000000000000010 |c:Division-2.c@205@F@main@y?1!0&0#23|))

(define-fun $e90 () (_ BitVec 32) 

 (bvadd #b00000000000000000000000000000001 $e89))

(define-fun $e91 () (_ BitVec 1) 

 ((_ extract 31 31) $e90))

(define-fun $e92 () (_ BitVec 32) 

 (concat #b0 

  ((_ extract 31 1) 

   (bvadd #b00000000000000000000000000000001 

    (ite 

     (= #b1 $e91) 

     (bvnot $e90) $e89)))))

(define-fun $e93 () (_ BitVec 32) 

 (bvmul #b00000000000000000000000000000010 |c:Division-2.c@205@F@main@y?1!0&0#24|))

(define-fun $e94 () (_ BitVec 32) 

 (bvadd #b00000000000000000000000000000001 $e93))

(define-fun $e95 () (_ BitVec 1) 

 ((_ extract 31 31) $e94))

(define-fun $e96 () (_ BitVec 32) 

 (concat #b0 

  ((_ extract 31 1) 

   (bvadd #b00000000000000000000000000000001 

    (ite 

     (= #b1 $e95) 

     (bvnot $e94) $e93)))))

(define-fun $e97 () (_ BitVec 32) 

 (bvmul #b00000000000000000000000000000010 |c:Division-2.c@205@F@main@y?1!0&0#25|))

(define-fun $e98 () (_ BitVec 32) 

 (bvadd #b00000000000000000000000000000001 $e97))

(define-fun $e99 () (_ BitVec 1) 

 ((_ extract 31 31) $e98))

(define-fun $e100 () (_ BitVec 32) 

 (concat #b0 

  ((_ extract 31 1) 

   (bvadd #b00000000000000000000000000000001 

    (ite 

     (= #b1 $e99) 

     (bvnot $e98) $e97)))))

(define-fun $e101 () (_ BitVec 32) 

 (bvmul #b00000000000000000000000000000010 |c:Division-2.c@205@F@main@y?1!0&0#26|))

(define-fun $e102 () (_ BitVec 32) 

 (bvadd #b00000000000000000000000000000001 $e101))

(define-fun $e103 () (_ BitVec 1) 

 ((_ extract 31 31) $e102))

(define-fun $e104 () (_ BitVec 32) 

 (concat #b0 

  ((_ extract 31 1) 

   (bvadd #b00000000000000000000000000000001 

    (ite 

     (= #b1 $e103) 

     (bvnot $e102) $e101)))))

(assert 

 (= __ESBMC_ptr_obj_start_0 #b0000000000000000000000000000000000000000000000000000000000000000))

(assert 

 (= #b0000000000000000000000000000000000000000000000000000000000000000 __ESBMC_ptr_obj_end_0))

(assert 

 (= __ESBMC_ptr_obj_start_1 #b0000000000000000000000000000000000000000000000000000000000000001))

(assert 

 (= #b1111111111111111111111111111111111111111111111111111111111111111 __ESBMC_ptr_obj_end_1))

(assert 

 (= __ESBMC_ptr_obj_end_0 |smt_conv::__ESBMC_ptr_addr_range_0..end0|))

(assert 

 (= __ESBMC_ptr_obj_start_0 |smt_conv::__ESBMC_ptr_addr_range_0..start0|))

(assert 

 (= __ESBMC_ptr_obj_end_1 |smt_conv::__ESBMC_ptr_addr_range_1..end0|))

(assert 

 (= __ESBMC_ptr_obj_start_1 |smt_conv::__ESBMC_ptr_addr_range_1..start0|))

(assert 

 (= |smt_conv::smt_conv::collate_array_vals::3..end0| |smt_conv::smt_conv::collate_array_vals::4..end0|))

(assert 

 (= |smt_conv::smt_conv::collate_array_vals::3..start0| |smt_conv::smt_conv::collate_array_vals::4..start0|))

(assert 

 (= __ESBMC_ptr_obj_end_0 |smt_conv::smt_conv::collate_array_vals::7..end0|))

(assert 

 (= __ESBMC_ptr_obj_start_0 |smt_conv::smt_conv::collate_array_vals::7..start0|))

(assert 

 (= |c:@F@main::$tmp::return_value$___VERIFIER_nondet_int$1?1!0&0#1| |nondet$symex::nondet26|))

(assert 

 (= |c:@F@main::$tmp::return_value$___VERIFIER_nondet_int$1?1!0&0#1| |c:Division-2.c@205@F@main@y?1!0&0#1|))

(assert 

 (= |goto_symex::guard?0!0&0#1| 

  (ite 

   (and 

    (not 

     (bvslt #b00000000000000000000000000001010 |c:Division-2.c@205@F@main@y?1!0&0#1|)) 

    (not 

     (bvslt |c:Division-2.c@205@F@main@y?1!0&0#1| #b00000000000000000000000000000000))) #b1 #b0)))

(assert 

 (= |c:Division-2.c@205@F@main@y?1!0&0#2| 

  (ite 

   (= #b1 $e3) 

   (bvadd #b00000000000000000000000000000001 

    (bvnot $e4)) $e4)))

(assert 

 (= |goto_symex::guard?0!0&0#2| 

  (ite 

   (and 

    (not 

     (bvslt #b00000000000000000000000000001010 |c:Division-2.c@205@F@main@y?1!0&0#2|)) 

    (not 

     (bvslt |c:Division-2.c@205@F@main@y?1!0&0#2| #b00000000000000000000000000000000))) #b1 #b0)))

(assert 

 (= |c:Division-2.c@205@F@main@y?1!0&0#3| 

  (ite 

   (= #b1 $e7) 

   (bvadd #b00000000000000000000000000000001 

    (bvnot $e8)) $e8)))

(assert 

 (= |goto_symex::guard?0!0&0#3| 

  (ite 

   (and 

    (not 

     (bvslt #b00000000000000000000000000001010 |c:Division-2.c@205@F@main@y?1!0&0#3|)) 

    (not 

     (bvslt |c:Division-2.c@205@F@main@y?1!0&0#3| #b00000000000000000000000000000000))) #b1 #b0)))

(assert 

 (= |c:Division-2.c@205@F@main@y?1!0&0#4| 

  (ite 

   (= #b1 $e11) 

   (bvadd #b00000000000000000000000000000001 

    (bvnot $e12)) $e12)))

(assert 

 (= |goto_symex::guard?0!0&0#4| 

  (ite 

   (and 

    (not 

     (bvslt #b00000000000000000000000000001010 |c:Division-2.c@205@F@main@y?1!0&0#4|)) 

    (not 

     (bvslt |c:Division-2.c@205@F@main@y?1!0&0#4| #b00000000000000000000000000000000))) #b1 #b0)))

(assert 

 (= |c:Division-2.c@205@F@main@y?1!0&0#5| 

  (ite 

   (= #b1 $e15) 

   (bvadd #b00000000000000000000000000000001 

    (bvnot $e16)) $e16)))

(assert 

 (= |goto_symex::guard?0!0&0#5| 

  (ite 

   (and 

    (not 

     (bvslt #b00000000000000000000000000001010 |c:Division-2.c@205@F@main@y?1!0&0#5|)) 

    (not 

     (bvslt |c:Division-2.c@205@F@main@y?1!0&0#5| #b00000000000000000000000000000000))) #b1 #b0)))

(assert 

 (= |c:Division-2.c@205@F@main@y?1!0&0#6| 

  (ite 

   (= #b1 $e19) 

   (bvadd #b00000000000000000000000000000001 

    (bvnot $e20)) $e20)))

(assert 

 (= |goto_symex::guard?0!0&0#6| 

  (ite 

   (and 

    (not 

     (bvslt #b00000000000000000000000000001010 |c:Division-2.c@205@F@main@y?1!0&0#6|)) 

    (not 

     (bvslt |c:Division-2.c@205@F@main@y?1!0&0#6| #b00000000000000000000000000000000))) #b1 #b0)))

(assert 

 (= |c:Division-2.c@205@F@main@y?1!0&0#7| 

  (ite 

   (= #b1 $e23) 

   (bvadd #b00000000000000000000000000000001 

    (bvnot $e24)) $e24)))

(assert 

 (= |goto_symex::guard?0!0&0#7| 

  (ite 

   (and 

    (not 

     (bvslt #b00000000000000000000000000001010 |c:Division-2.c@205@F@main@y?1!0&0#7|)) 

    (not 

     (bvslt |c:Division-2.c@205@F@main@y?1!0&0#7| #b00000000000000000000000000000000))) #b1 #b0)))

(assert 

 (= |c:Division-2.c@205@F@main@y?1!0&0#8| 

  (ite 

   (= #b1 $e27) 

   (bvadd #b00000000000000000000000000000001 

    (bvnot $e28)) $e28)))

(assert 

 (= |goto_symex::guard?0!0&0#8| 

  (ite 

   (and 

    (not 

     (bvslt #b00000000000000000000000000001010 |c:Division-2.c@205@F@main@y?1!0&0#8|)) 

    (not 

     (bvslt |c:Division-2.c@205@F@main@y?1!0&0#8| #b00000000000000000000000000000000))) #b1 #b0)))

(assert 

 (= |c:Division-2.c@205@F@main@y?1!0&0#9| 

  (ite 

   (= #b1 $e31) 

   (bvadd #b00000000000000000000000000000001 

    (bvnot $e32)) $e32)))

(assert 

 (= |goto_symex::guard?0!0&0#9| 

  (ite 

   (and 

    (not 

     (bvslt #b00000000000000000000000000001010 |c:Division-2.c@205@F@main@y?1!0&0#9|)) 

    (not 

     (bvslt |c:Division-2.c@205@F@main@y?1!0&0#9| #b00000000000000000000000000000000))) #b1 #b0)))

(assert 

 (= |c:Division-2.c@205@F@main@y?1!0&0#10| 

  (ite 

   (= #b1 $e35) 

   (bvadd #b00000000000000000000000000000001 

    (bvnot $e36)) $e36)))

(assert 

 (= |goto_symex::guard?0!0&0#10| 

  (ite 

   (and 

    (not 

     (bvslt #b00000000000000000000000000001010 |c:Division-2.c@205@F@main@y?1!0&0#10|)) 

    (not 

     (bvslt |c:Division-2.c@205@F@main@y?1!0&0#10| #b00000000000000000000000000000000))) #b1 #b0)))

(assert 

 (= |c:Division-2.c@205@F@main@y?1!0&0#11| 

  (ite 

   (= #b1 $e39) 

   (bvadd #b00000000000000000000000000000001 

    (bvnot $e40)) $e40)))

(assert 

 (= |goto_symex::guard?0!0&0#11| 

  (ite 

   (and 

    (not 

     (bvslt #b00000000000000000000000000001010 |c:Division-2.c@205@F@main@y?1!0&0#11|)) 

    (not 

     (bvslt |c:Division-2.c@205@F@main@y?1!0&0#11| #b00000000000000000000000000000000))) #b1 #b0)))

(assert 

 (= |c:Division-2.c@205@F@main@y?1!0&0#12| 

  (ite 

   (= #b1 $e43) 

   (bvadd #b00000000000000000000000000000001 

    (bvnot $e44)) $e44)))

(assert 

 (= |goto_symex::guard?0!0&0#12| 

  (ite 

   (and 

    (not 

     (bvslt #b00000000000000000000000000001010 |c:Division-2.c@205@F@main@y?1!0&0#12|)) 

    (not 

     (bvslt |c:Division-2.c@205@F@main@y?1!0&0#12| #b00000000000000000000000000000000))) #b1 #b0)))

(assert 

 (= |c:Division-2.c@205@F@main@y?1!0&0#13| 

  (ite 

   (= #b1 $e47) 

   (bvadd #b00000000000000000000000000000001 

    (bvnot $e48)) $e48)))

(assert 

 (= |goto_symex::guard?0!0&0#13| 

  (ite 

   (and 

    (not 

     (bvslt #b00000000000000000000000000001010 |c:Division-2.c@205@F@main@y?1!0&0#13|)) 

    (not 

     (bvslt |c:Division-2.c@205@F@main@y?1!0&0#13| #b00000000000000000000000000000000))) #b1 #b0)))

(assert 

 (= |c:Division-2.c@205@F@main@y?1!0&0#14| 

  (ite 

   (= #b1 $e51) 

   (bvadd #b00000000000000000000000000000001 

    (bvnot $e52)) $e52)))

(assert 

 (= |goto_symex::guard?0!0&0#14| 

  (ite 

   (and 

    (not 

     (bvslt #b00000000000000000000000000001010 |c:Division-2.c@205@F@main@y?1!0&0#14|)) 

    (not 

     (bvslt |c:Division-2.c@205@F@main@y?1!0&0#14| #b00000000000000000000000000000000))) #b1 #b0)))

(assert 

 (= |c:Division-2.c@205@F@main@y?1!0&0#15| 

  (ite 

   (= #b1 $e55) 

   (bvadd #b00000000000000000000000000000001 

    (bvnot $e56)) $e56)))

(assert 

 (= |goto_symex::guard?0!0&0#15| 

  (ite 

   (and 

    (not 

     (bvslt #b00000000000000000000000000001010 |c:Division-2.c@205@F@main@y?1!0&0#15|)) 

    (not 

     (bvslt |c:Division-2.c@205@F@main@y?1!0&0#15| #b00000000000000000000000000000000))) #b1 #b0)))

(assert 

 (= |c:Division-2.c@205@F@main@y?1!0&0#16| 

  (ite 

   (= #b1 $e59) 

   (bvadd #b00000000000000000000000000000001 

    (bvnot $e60)) $e60)))

(assert 

 (= |goto_symex::guard?0!0&0#16| 

  (ite 

   (and 

    (not 

     (bvslt #b00000000000000000000000000001010 |c:Division-2.c@205@F@main@y?1!0&0#16|)) 

    (not 

     (bvslt |c:Division-2.c@205@F@main@y?1!0&0#16| #b00000000000000000000000000000000))) #b1 #b0)))

(assert 

 (= |c:Division-2.c@205@F@main@y?1!0&0#17| 

  (ite 

   (= #b1 $e63) 

   (bvadd #b00000000000000000000000000000001 

    (bvnot $e64)) $e64)))

(assert 

 (= |goto_symex::guard?0!0&0#17| 

  (ite 

   (and 

    (not 

     (bvslt #b00000000000000000000000000001010 |c:Division-2.c@205@F@main@y?1!0&0#17|)) 

    (not 

     (bvslt |c:Division-2.c@205@F@main@y?1!0&0#17| #b00000000000000000000000000000000))) #b1 #b0)))

(assert 

 (= |c:Division-2.c@205@F@main@y?1!0&0#18| 

  (ite 

   (= #b1 $e67) 

   (bvadd #b00000000000000000000000000000001 

    (bvnot $e68)) $e68)))

(assert 

 (= |goto_symex::guard?0!0&0#18| 

  (ite 

   (and 

    (not 

     (bvslt #b00000000000000000000000000001010 |c:Division-2.c@205@F@main@y?1!0&0#18|)) 

    (not 

     (bvslt |c:Division-2.c@205@F@main@y?1!0&0#18| #b00000000000000000000000000000000))) #b1 #b0)))

(assert 

 (= |c:Division-2.c@205@F@main@y?1!0&0#19| 

  (ite 

   (= #b1 $e71) 

   (bvadd #b00000000000000000000000000000001 

    (bvnot $e72)) $e72)))

(assert 

 (= |goto_symex::guard?0!0&0#19| 

  (ite 

   (and 

    (not 

     (bvslt #b00000000000000000000000000001010 |c:Division-2.c@205@F@main@y?1!0&0#19|)) 

    (not 

     (bvslt |c:Division-2.c@205@F@main@y?1!0&0#19| #b00000000000000000000000000000000))) #b1 #b0)))

(assert 

 (= |c:Division-2.c@205@F@main@y?1!0&0#20| 

  (ite 

   (= #b1 $e75) 

   (bvadd #b00000000000000000000000000000001 

    (bvnot $e76)) $e76)))

(assert 

 (= |goto_symex::guard?0!0&0#20| 

  (ite 

   (and 

    (not 

     (bvslt #b00000000000000000000000000001010 |c:Division-2.c@205@F@main@y?1!0&0#20|)) 

    (not 

     (bvslt |c:Division-2.c@205@F@main@y?1!0&0#20| #b00000000000000000000000000000000))) #b1 #b0)))

(assert 

 (= |c:Division-2.c@205@F@main@y?1!0&0#21| 

  (ite 

   (= #b1 $e79) 

   (bvadd #b00000000000000000000000000000001 

    (bvnot $e80)) $e80)))

(assert 

 (= |goto_symex::guard?0!0&0#21| 

  (ite 

   (and 

    (not 

     (bvslt #b00000000000000000000000000001010 |c:Division-2.c@205@F@main@y?1!0&0#21|)) 

    (not 

     (bvslt |c:Division-2.c@205@F@main@y?1!0&0#21| #b00000000000000000000000000000000))) #b1 #b0)))

(assert 

 (= |c:Division-2.c@205@F@main@y?1!0&0#22| 

  (ite 

   (= #b1 $e83) 

   (bvadd #b00000000000000000000000000000001 

    (bvnot $e84)) $e84)))

(assert 

 (= |goto_symex::guard?0!0&0#22| 

  (ite 

   (and 

    (not 

     (bvslt #b00000000000000000000000000001010 |c:Division-2.c@205@F@main@y?1!0&0#22|)) 

    (not 

     (bvslt |c:Division-2.c@205@F@main@y?1!0&0#22| #b00000000000000000000000000000000))) #b1 #b0)))

(assert 

 (= |c:Division-2.c@205@F@main@y?1!0&0#23| 

  (ite 

   (= #b1 $e87) 

   (bvadd #b00000000000000000000000000000001 

    (bvnot $e88)) $e88)))

(assert 

 (= |goto_symex::guard?0!0&0#23| 

  (ite 

   (and 

    (not 

     (bvslt #b00000000000000000000000000001010 |c:Division-2.c@205@F@main@y?1!0&0#23|)) 

    (not 

     (bvslt |c:Division-2.c@205@F@main@y?1!0&0#23| #b00000000000000000000000000000000))) #b1 #b0)))

(assert 

 (= |c:Division-2.c@205@F@main@y?1!0&0#24| 

  (ite 

   (= #b1 $e91) 

   (bvadd #b00000000000000000000000000000001 

    (bvnot $e92)) $e92)))

(assert 

 (= |goto_symex::guard?0!0&0#24| 

  (ite 

   (and 

    (not 

     (bvslt #b00000000000000000000000000001010 |c:Division-2.c@205@F@main@y?1!0&0#24|)) 

    (not 

     (bvslt |c:Division-2.c@205@F@main@y?1!0&0#24| #b00000000000000000000000000000000))) #b1 #b0)))

(assert 

 (= |c:Division-2.c@205@F@main@y?1!0&0#25| 

  (ite 

   (= #b1 $e95) 

   (bvadd #b00000000000000000000000000000001 

    (bvnot $e96)) $e96)))

(assert 

 (= |goto_symex::guard?0!0&0#25| 

  (ite 

   (and 

    (not 

     (bvslt #b00000000000000000000000000001010 |c:Division-2.c@205@F@main@y?1!0&0#25|)) 

    (not 

     (bvslt |c:Division-2.c@205@F@main@y?1!0&0#25| #b00000000000000000000000000000000))) #b1 #b0)))

(assert 

 (= |c:Division-2.c@205@F@main@y?1!0&0#26| 

  (ite 

   (= #b1 $e99) 

   (bvadd #b00000000000000000000000000000001 

    (bvnot $e100)) $e100)))

(assert 

 (= |goto_symex::guard?0!0&0#26| 

  (ite 

   (and 

    (not 

     (bvslt #b00000000000000000000000000001010 |c:Division-2.c@205@F@main@y?1!0&0#26|)) 

    (not 

     (bvslt |c:Division-2.c@205@F@main@y?1!0&0#26| #b00000000000000000000000000000000))) #b1 #b0)))

(assert 

 (= |c:Division-2.c@205@F@main@y?1!0&0#27| 

  (ite 

   (= #b1 $e103) 

   (bvadd #b00000000000000000000000000000001 

    (bvnot $e104)) $e104)))

(assert 

 (= |goto_symex::guard?0!0&0#27| 

  (ite 

   (and 

    (not 

     (bvslt #b00000000000000000000000000001010 |c:Division-2.c@205@F@main@y?1!0&0#27|)) 

    (not 

     (bvslt |c:Division-2.c@205@F@main@y?1!0&0#27| #b00000000000000000000000000000000))) #b1 #b0)))

(assert (= |execution_statet::guard_exec?0!0| #b1))

(assert (= |goto_symex::guard?0!0&0#27| #b1))

(assert (= |goto_symex::guard?0!0&0#26| #b1))

(assert (= |goto_symex::guard?0!0&0#25| #b1))

(assert (= |goto_symex::guard?0!0&0#24| #b1))

(assert (= |goto_symex::guard?0!0&0#23| #b1))

(assert (= |goto_symex::guard?0!0&0#22| #b1))

(assert (= |goto_symex::guard?0!0&0#21| #b1))

(assert (= |goto_symex::guard?0!0&0#20| #b1))

(assert (= |goto_symex::guard?0!0&0#19| #b1))

(assert (= |goto_symex::guard?0!0&0#18| #b1))

(assert (= |goto_symex::guard?0!0&0#17| #b1))

(assert (= |goto_symex::guard?0!0&0#16| #b1))

(assert (= |goto_symex::guard?0!0&0#15| #b1))

(assert (= |goto_symex::guard?0!0&0#14| #b1))

(assert (= |goto_symex::guard?0!0&0#13| #b1))

(assert (= |goto_symex::guard?0!0&0#12| #b1))

(assert (= |goto_symex::guard?0!0&0#11| #b1))

(assert (= |goto_symex::guard?0!0&0#10| #b1))

(assert (= |goto_symex::guard?0!0&0#9| #b1))

(assert (= |goto_symex::guard?0!0&0#8| #b1))

(assert (= |goto_symex::guard?0!0&0#7| #b1))

(assert (= |goto_symex::guard?0!0&0#6| #b1))

(assert (= |goto_symex::guard?0!0&0#5| #b1))

(assert (= |goto_symex::guard?0!0&0#4| #b1))

(assert (= |goto_symex::guard?0!0&0#3| #b1))

(assert (= |goto_symex::guard?0!0&0#2| #b1))

(assert (= |goto_symex::guard?0!0&0#1| #b1))

(check-sat)

(exit)
